13325
1 1 1 1 0 1 1 1 1 1
5 7 0 8 3 7 7 9 7 9 3 6 1 3 9 7 9 8 8 9 3 8 6 9 7 9 0 6 7 8 2 6 2 1 9 0 8 7 1 7 2 6 1 7 0 3 9 7 5 7 2 0 1 0 3 7 1 6 1 8 6 7 0 3 7 1 5 7 5 5 0 0 3 7 0 6 3 5 7 7 0 1 0 2 8 3 5 7 8 5